19067.9
197 13 14 28 30 41 42 57 56 43 44 55 39 40 31 32 29 26 27 15 12 0 1 11 16 25 33 38 45 54 61 68 67 62 63 66 65 72 73 74 75 78 77 76 70 69 71 60 52 47 53 46 37 24 17 10 9 3 4 5 196 195 6 8 19 20 7 193 194 192 183 184 185 191 190 186 187 188 189 177 178 179 180 181 182 175 176 174 173 172 128 171 167 166 165 163 162 164 161 156 157 155 150 151 154 152 153 147 146 134 133 132 131 125 126 169 170 127 168 160 148 145 144 149 136 135 137 138 139 140 141 142 143 158 159 130 129 36 50 51 49 48 35 21 22 23 18 34 2 64 79 80 81 82 83 84 85 59 58 86 87 88 89 90 91 94 95 96 93 92 97 98 124 123 122 120 116 114 115 108 107 106 109 113 117 119 118 103 112 110 105 104 111 101 100 99 102 121 
